20160707 16 0 0 0
20150626 9 0 0 0
20140627 10 0 0 0
20130618 36 0 0 0
20120423 70 6000 0 0
20101110 60 5000 0 0
20090708 170 2000 0 0
20070105 0 2800 0 0
20060616 20 0 0 0
20050715 20 0 0 0
20031023 0 6000 0 0
20020715 60 0 0 0
20010718 60 0 0 0
20000703 60 0 0 0
19970707 100 0 0 0
